(assert (forall ((pkt_0_4_6_0  Int  )(state_group_0_state_0_5_7_0  Int  )(state_group_0_state_1_6_8_0  Int  )) (let ((_n0 state_group_0_state_0_5_7_0 ))
(let ((_n1 true ))
(let ((_n2 (<   (ite  _n1  1 0)   _n0 ) ))
(let ((_n3 false ))
(let ((_n4 (ite  _n2   (ite  _n3  1 0)   _n0  ) ))
(let ((_n5 (<   (ite  _n3  1 0)   _n4 ) ))
(let ((_n6 (ite  _n2   _n3   _n5  ) ))
(let ((_n7 (not  _n6 ) ))
(let ((_n8 (or   _n7   _n2 ) ))
(let ((_n9 (ite  _n8   (ite  _n3  1 0)   _n0  ) ))
(let ((_n10 (=   _n9   (ite  _n1  1 0) ) ))
(let ((_n11 (ite  _n8   _n3   _n10  ) ))
(let ((_n12 (or   _n11   _n8 ) ))
(let ((_n14 2 ))
(let ((_n15 (ite (=  _n0  1)  _n14   _n0  ) ))
(let ((_n16 state_group_0_state_1_6_8_0 ))
(let ((_n17 (ite (=  _n0  1)  (ite  _n3  1 0)   _n16  ) ))
(let ((_n18 3 ))
(let ((_n19 (ite (=  _n17  999)  _n18   _n15  ) ))
(let ((_n20 (ite (=  _n15  2)  _n19   _n15  ) ))
(let ((_n21 (not  _n11 ) ))
(let ((_n22 (or   _n21   _n8 ) ))
(let ((_n23 (ite  _n22   (ite  _n3  1 0)   _n14  ) ))
(let ((_n24 (ite  _n22   _n0   (ite  _n3  1 0)  ) ))
(let ((_n25 (+   _n24   _n23 ) ))
(let ((_n26 (ite (=  (ite  _n11  1 0)  1)  _n25   _n0  ) ))
(let ((_n27 (ite (=  (ite  _n6  1 0)  1)  _n26   _n0  ) ))
(let ((_n28 (ite  _n2   _n0   (ite  _n3  1 0)  ) ))
(let ((_n29 (=   _n28   _n14 ) ))
(let ((_n30 (not  _n29 ) ))
(let ((_n31 (and   _n2   _n30 ) ))
(let ((_n32 (not  _n2 ) ))
(let ((_n33 (or   _n31   _n32 ) ))
(let ((_n34 (ite  _n33   (ite  _n3  1 0)   _n14  ) ))
(let ((_n35 (-  _n34 )))
(let ((_n36 4 ))
(let ((_n37 (ite  _n33   (ite  _n3  1 0)   _n36  ) ))
(let ((_n38 (+   _n37   _n35 ) ))
(let ((_n39 (ite  _n33   (ite  _n3  1 0)   _n38  ) ))
(let ((_n40 (ite  _n33   _n0   (ite  _n3  1 0)  ) ))
(let ((_n41 (+   _n40   _n39 ) ))
(let ((_n42 (ite (=  (ite  _n31  1 0)  1)  _n0   _n41  ) ))
(let ((_n43 (ite (=  (ite  _n2  1 0)  1)  _n42   _n27  ) ))
(let ((_n44 (=   _n43   _n20 ) ))
(let ((_n46 (+   _n17   (ite  _n1  1 0) ) ))
(let ((_n47 (ite (=  _n15  2)  _n46   _n17  ) ))
(let ((_n48 pkt_0_4_6_0 ))
(let ((_n49 (ite  _n12   (ite  _n3  1 0)   _n48  ) ))
(let ((_n50 (+   _n49   _n49 ) ))
(let ((_n51 (ite  _n12   (ite  _n3  1 0)   _n50  ) ))
(let ((_n52 (+   _n16   _n51 ) ))
(let ((_n53 (not  _n22 ) ))
(let ((_n54 (ite  _n22   _n16   (ite  _n3  1 0)  ) ))
(let ((_n55 (+   _n54   (ite  _n53  1 0) ) ))
(let ((_n56 (ite (=  (ite  _n11  1 0)  1)  _n55   _n52  ) ))
(let ((_n57 (ite (=  (ite  _n6  1 0)  1)  _n56   _n16  ) ))
(let ((_n58 (ite  _n33   (ite  _n3  1 0)   _n18  ) ))
(let ((_n59 (+   _n58   _n35 ) ))
(let ((_n60 (ite  _n33   (ite  _n3  1 0)   _n59  ) ))
(let ((_n61 (+   _n16   _n60 ) ))
(let ((_n62 (ite (=  (ite  _n31  1 0)  1)  _n16   _n61  ) ))
(let ((_n63 (ite (=  (ite  _n2  1 0)  1)  _n62   _n57  ) ))
(let ((_n64 (=   _n63   _n47 ) ))
(let ((_n66 (ite (=  _n48  0)  (ite  _n3  1 0)   _n48  ) ))
(let ((_n67 (=   _n66   _n48 ) ))
(implies  (and (and (>= state_group_0_state_1_6_8_0 0) (< state_group_0_state_1_6_8_0 1024 ))  (and (and (>= state_group_0_state_0_5_7_0 0) (< state_group_0_state_0_5_7_0 1024 ))  (and (>= pkt_0_4_6_0 0) (< pkt_0_4_6_0 1024 )) ) )   (and  _n12  _n44  _n64  _n67 )  ))))))))))))))))))))))))))))))))))))))))))))))))))))))))))))))))))))
(check-sat)
(get-model)
(exit)